2 15
153 158 
0 1 5 33 23 52 23 1
1 60 61 86 96 81 81 2
2 90 95 83 74 88 33 1
3 86 92 37 39 46 14 1
4 1 5 45 48 33 80 1
5 12 15 59 61 82 3 1
6 35 34 56 61 77 35 2
7 46 53 84 91 8 96 1
8 64 74 49 41 19 64 2
9 66 75 30 30 72 53 2
10 42 33 78 79 59 77 1
11 16 12 30 23 56 69 1
12 106 97 34 40 76 60 1
13 84 85 42 32 57 41 2
14 24 30 54 56 78 28 1
